17
12
12 13 3
7 11 5 15 6 1 9 3 2 14 13 16 8 4 10 12 0
6 11 12 8 5 3 13 0 14
3 13 7 5 1 16
7 8 9 1 16 11 10 2 6 13 3 5 15
15 2
4 9 10 12 5 1 3 16 6 0 7 11 15
7 13 8 1 6 5 15
14 9
14 7 13 2 3 4
5 6 11
6 11 1 8 16 4 14 10 5 3 2 12 15 13 7 0 9
